experiments/sat_smt/run/sat-r+/results/a_b.res
solved=true
solvingTime=167.10003662109375
nActions=18