experiments/sat_smt/run/sat-r+/results/a_b.out
Timesteps: 1
s UNSATISFIABLE
real 0.21
user 0.03
sys 0.00
Timesteps: 2
s UNSATISFIABLE
real 0.22
user 0.06
sys 0.00
Timesteps: 3
s UNSATISFIABLE
real 0.33
user 0.11
sys 0.01
Timesteps: 4
s UNSATISFIABLE
real 0.45
user 0.24
sys 0.01
Timesteps: 5
s UNSATISFIABLE
real 0.77
user 0.58
sys 0.02
Timesteps: 6
s UNSATISFIABLE
real 0.85
user 0.65
sys 0.02
Timesteps: 7
s UNSATISFIABLE
real 1.53
user 1.19
sys 0.02
Timesteps: 8
s UNSATISFIABLE
real 2.80
user 2.55
sys 0.02
Timesteps: 9
s UNSATISFIABLE
real 2.70
user 2.34
sys 0.04
Timesteps: 10
s UNSATISFIABLE
real 6.98
user 6.18
sys 0.03
Timesteps: 11
s UNSATISFIABLE
real 7.78
user 6.81
sys 0.06
Timesteps: 12
s UNSATISFIABLE
real 10.39
user 9.38
sys 0.06
Timesteps: 13
s UNSATISFIABLE
real 13.50
user 12.43
sys 0.06
Timesteps: 14
s UNSATISFIABLE
real 20.80
user 19.56
sys 0.07
Timesteps: 15
s UNSATISFIABLE
real 28.58
user 27.19
sys 0.10
Timesteps: 16
s UNSATISFIABLE
real 27.48
user 26.07
sys 0.10
Timesteps: 17
s UNSATISFIABLE
real 18.11
user 17.39
sys 0.10
Timesteps: 18
s SATISFIABLE
real 28.67
user 27.18
sys 0.09
